Route #1: 83 50 35 26 74 87 78 109
Route #2: 56 123 110 54 86 72 3 38
Route #3: 103 10 88 37 24 62 32
Route #4: 80 82 133 12 33 124 130 19
Route #5: 128 76 17 115 125 127 114 11
Route #6: 131 52 129 116 89 113 25 41 105
Route #7: 59 18 73 39 2 9 47 16
Route #8: 122 101 34 51 91 14 58 60
Route #9: 29 69 1 71 61 119 57 106 85
Route #10: 48 79 36 111 120 49 117 64 112
Route #11: 43 42 98 44 107 8 30 68 81 15 63 7 121 77 5 97 6 108 90
Route #12: 102 94 93 65 28 75 20 126 55 67 22 27 4 70 84 23 53 66 13 96
Route #13: 45 21 46 99 104 92 31 100
Route #14: 40 95 118 132
Cost 11990
